PreSolver/instances/dataset_final_sat/sat_tseitin_30_400_34370.cnf
c description: Tseitin formula on , with even charge
c generator: CNFgen (0.9.0)
c copyright: (C) 2012-2020 Massimo Lauria <massimo.lauria@uniroma1.it>
c url: https://massimolauria.net/cnfgen
c
p cnf 30 400
1 2 3 -4 0
1 2 -3 4 0
1 -2 3 4 0
1 -2 -3 -4 0
-1 2 3 4 0
-1 2 -3 -4 0
-1 -2 3 -4 0
-1 -2 -3 4 0
5 6 7 8 9 -10 0
5 6 7 8 -9 10 0
5 6 7 -8 9 10 0
5 6 7 -8 -9 -10 0
5 6 -7 8 9 10 0
5 6 -7 8 -9 -10 0
5 6 -7 -8 9 -10 0
5 6 -7 -8 -9 10 0
5 -6 7 8 9 10 0
5 -6 7 8 -9 -10 0
5 -6 7 -8 9 -10 0
5 -6 7 -8 -9 10 0
5 -6 -7 8 9 -10 0
5 -6 -7 8 -9 10 0
5 -6 -7 -8 9 10 0
5 -6 -7 -8 -9 -10 0
-5 6 7 8 9 10 0
-5 6 7 8 -9 -10 0
-5 6 7 -8 9 -10 0
-5 6 7 -8 -9 10 0
-5 6 -7 8 9 -10 0
-5 6 -7 8 -9 10 0
-5 6 -7 -8 9 10 0
-5 6 -7 -8 -9 -10 0
-5 -6 7 8 9 -10 0
-5 -6 7 8 -9 10 0
-5 -6 7 -8 9 10 0
-5 -6 7 -8 -9 -10 0
-5 -6 -7 8 9 10 0
-5 -6 -7 8 -9 -10 0
-5 -6 -7 -8 9 -10 0
-5 -6 -7 -8 -9 10 0
5 11 12 13 14 15 -16 0
5 11 12 13 14 -15 16 0
5 11 12 13 -14 15 16 0
5 11 12 13 -14 -15 -16 0
5 11 12 -13 14 15 16 0
5 11 12 -13 14 -15 -16 0
5 11 12 -13 -14 15 -16 0
5 11 12 -13 -14 -15 16 0
5 11 -12 13 14 15 16 0
5 11 -12 13 14 -15 -16 0
5 11 -12 13 -14 15 -16 0
5 11 -12 13 -14 -15 16 0
5 11 -12 -13 14 15 -16 0
5 11 -12 -13 14 -15 16 0
5 11 -12 -13 -14 15 16 0
5 11 -12 -13 -14 -15 -16 0
5 -11 12 13 14 15 16 0
5 -11 12 13 14 -15 -16 0
5 -11 12 13 -14 15 -16 0
5 -11 12 13 -14 -15 16 0
5 -11 12 -13 14 15 -16 0
5 -11 12 -13 14 -15 16 0
5 -11 12 -13 -14 15 16 0
5 -11 12 -13 -14 -15 -16 0
5 -11 -12 13 14 15 -16 0
5 -11 -12 13 14 -15 16 0
5 -11 -12 13 -14 15 16 0
5 -11 -12 13 -14 -15 -16 0
5 -11 -12 -13 14 15 16 0
5 -11 -12 -13 14 -15 -16 0
5 -11 -12 -13 -14 15 -16 0
5 -11 -12 -13 -14 -15 16 0
-5 11 12 13 14 15 16 0
-5 11 12 13 14 -15 -16 0
-5 11 12 13 -14 15 -16 0
-5 11 12 13 -14 -15 16 0
-5 11 12 -13 14 15 -16 0
-5 11 12 -13 14 -15 16 0
-5 11 12 -13 -14 15 16 0
-5 11 12 -13 -14 -15 -16 0
-5 11 -12 13 14 15 -16 0
-5 11 -12 13 14 -15 16 0
-5 11 -12 13 -14 15 16 0
-5 11 -12 13 -14 -15 -16 0
-5 11 -12 -13 14 15 16 0
-5 11 -12 -13 14 -15 -16 0
-5 11 -12 -13 -14 15 -16 0
-5 11 -12 -13 -14 -15 16 0
-5 -11 12 13 14 15 -16 0
-5 -11 12 13 14 -15 16 0
-5 -11 12 13 -14 15 16 0
-5 -11 12 13 -14 -15 -16 0
-5 -11 12 -13 14 15 16 0
-5 -11 12 -13 14 -15 -16 0
-5 -11 12 -13 -14 15 -16 0
-5 -11 12 -13 -14 -15 16 0
-5 -11 -12 13 14 15 16 0
-5 -11 -12 13 14 -15 -16 0
-5 -11 -12 13 -14 15 -16 0
-5 -11 -12 13 -14 -15 16 0
-5 -11 -12 -13 14 15 -16 0
-5 -11 -12 -13 14 -15 16 0
-5 -11 -12 -13 -14 15 16 0
-5 -11 -12 -13 -14 -15 -16 0
6 11 17 18 19 -20 0
6 11 17 18 -19 20 0
6 11 17 -18 19 20 0
6 11 17 -18 -19 -20 0
6 11 -17 18 19 20 0
6 11 -17 18 -19 -20 0
6 11 -17 -18 19 -20 0
6 11 -17 -18 -19 20 0
6 -11 17 18 19 20 0
6 -11 17 18 -19 -20 0
6 -11 17 -18 19 -20 0
6 -11 17 -18 -19 20 0
6 -11 -17 18 19 -20 0
6 -11 -17 18 -19 20 0
6 -11 -17 -18 19 20 0
6 -11 -17 -18 -19 -20 0
-6 11 17 18 19 20 0
-6 11 17 18 -19 -20 0
-6 11 17 -18 19 -20 0
-6 11 17 -18 -19 20 0
-6 11 -17 18 19 -20 0
-6 11 -17 18 -19 20 0
-6 11 -17 -18 19 20 0
-6 11 -17 -18 -19 -20 0
-6 -11 17 18 19 -20 0
-6 -11 17 18 -19 20 0
-6 -11 17 -18 19 20 0
-6 -11 17 -18 -19 -20 0
-6 -11 -17 18 19 20 0
-6 -11 -17 18 -19 -20 0
-6 -11 -17 -18 19 -20 0
-6 -11 -17 -18 -19 20 0
1 12 17 21 22 23 -24 0
1 12 17 21 22 -23 24 0
1 12 17 21 -22 23 24 0
1 12 17 21 -22 -23 -24 0
1 12 17 -21 22 23 24 0
1 12 17 -21 22 -23 -24 0
1 12 17 -21 -22 23 -24 0
1 12 17 -21 -22 -23 24 0
1 12 -17 21 22 23 24 0
1 12 -17 21 22 -23 -24 0
1 12 -17 21 -22 23 -24 0
1 12 -17 21 -22 -23 24 0
1 12 -17 -21 22 23 -24 0
1 12 -17 -21 22 -23 24 0
1 12 -17 -21 -22 23 24 0
1 12 -17 -21 -22 -23 -24 0
1 -12 17 21 22 23 24 0
1 -12 17 21 22 -23 -24 0
1 -12 17 21 -22 23 -24 0
1 -12 17 21 -22 -23 24 0
1 -12 17 -21 22 23 -24 0
1 -12 17 -21 22 -23 24 0
1 -12 17 -21 -22 23 24 0
1 -12 17 -21 -22 -23 -24 0
1 -12 -17 21 22 23 -24 0
1 -12 -17 21 22 -23 24 0
1 -12 -17 21 -22 23 24 0
1 -12 -17 21 -22 -23 -24 0
1 -12 -17 -21 22 23 24 0
1 -12 -17 -21 22 -23 -24 0
1 -12 -17 -21 -22 23 -24 0
1 -12 -17 -21 -22 -23 24 0
-1 12 17 21 22 23 24 0
-1 12 17 21 22 -23 -24 0
-1 12 17 21 -22 23 -24 0
-1 12 17 21 -22 -23 24 0
-1 12 17 -21 22 23 -24 0
-1 12 17 -21 22 -23 24 0
-1 12 17 -21 -22 23 24 0
-1 12 17 -21 -22 -23 -24 0
-1 12 -17 21 22 23 -24 0
-1 12 -17 21 22 -23 24 0
-1 12 -17 21 -22 23 24 0
-1 12 -17 21 -22 -23 -24 0
-1 12 -17 -21 22 23 24 0
-1 12 -17 -21 22 -23 -24 0
-1 12 -17 -21 -22 23 -24 0
-1 12 -17 -21 -22 -23 24 0
-1 -12 17 21 22 23 -24 0
-1 -12 17 21 22 -23 24 0
-1 -12 17 21 -22 23 24 0
-1 -12 17 21 -22 -23 -24 0
-1 -12 17 -21 22 23 24 0
-1 -12 17 -21 22 -23 -24 0
-1 -12 17 -21 -22 23 -24 0
-1 -12 17 -21 -22 -23 24 0
-1 -12 -17 21 22 23 24 0
-1 -12 -17 21 22 -23 -24 0
-1 -12 -17 21 -22 23 -24 0
-1 -12 -17 21 -22 -23 24 0
-1 -12 -17 -21 22 23 -24 0
-1 -12 -17 -21 22 -23 24 0
-1 -12 -17 -21 -22 23 24 0
-1 -12 -17 -21 -22 -23 -24 0
2 13 18 21 25 -26 0
2 13 18 21 -25 26 0
2 13 18 -21 25 26 0
2 13 18 -21 -25 -26 0
2 13 -18 21 25 26 0
2 13 -18 21 -25 -26 0
2 13 -18 -21 25 -26 0
2 13 -18 -21 -25 26 0
2 -13 18 21 25 26 0
2 -13 18 21 -25 -26 0
2 -13 18 -21 25 -26 0
2 -13 18 -21 -25 26 0
2 -13 -18 21 25 -26 0
2 -13 -18 21 -25 26 0
2 -13 -18 -21 25 26 0
2 -13 -18 -21 -25 -26 0
-2 13 18 21 25 26 0
-2 13 18 21 -25 -26 0
-2 13 18 -21 25 -26 0
-2 13 18 -21 -25 26 0
-2 13 -18 21 25 -26 0
-2 13 -18 21 -25 26 0
-2 13 -18 -21 25 26 0
-2 13 -18 -21 -25 -26 0
-2 -13 18 21 25 -26 0
-2 -13 18 21 -25 26 0
-2 -13 18 -21 25 26 0
-2 -13 18 -21 -25 -26 0
-2 -13 -18 21 25 26 0
-2 -13 -18 21 -25 -26 0
-2 -13 -18 -21 25 -26 0
-2 -13 -18 -21 -25 26 0
7 14 19 22 27 28 -29 0
7 14 19 22 27 -28 29 0
7 14 19 22 -27 28 29 0
7 14 19 22 -27 -28 -29 0
7 14 19 -22 27 28 29 0
7 14 19 -22 27 -28 -29 0
7 14 19 -22 -27 28 -29 0
7 14 19 -22 -27 -28 29 0
7 14 -19 22 27 28 29 0
7 14 -19 22 27 -28 -29 0
7 14 -19 22 -27 28 -29 0
7 14 -19 22 -27 -28 29 0
7 14 -19 -22 27 28 -29 0
7 14 -19 -22 27 -28 29 0
7 14 -19 -22 -27 28 29 0
7 14 -19 -22 -27 -28 -29 0
7 -14 19 22 27 28 29 0
7 -14 19 22 27 -28 -29 0
7 -14 19 22 -27 28 -29 0
7 -14 19 22 -27 -28 29 0
7 -14 19 -22 27 28 -29 0
7 -14 19 -22 27 -28 29 0
7 -14 19 -22 -27 28 29 0
7 -14 19 -22 -27 -28 -29 0
7 -14 -19 22 27 28 -29 0
7 -14 -19 22 27 -28 29 0
7 -14 -19 22 -27 28 29 0
7 -14 -19 22 -27 -28 -29 0
7 -14 -19 -22 27 28 29 0
7 -14 -19 -22 27 -28 -29 0
7 -14 -19 -22 -27 28 -29 0
7 -14 -19 -22 -27 -28 29 0
-7 14 19 22 27 28 29 0
-7 14 19 22 27 -28 -29 0
-7 14 19 22 -27 28 -29 0
-7 14 19 22 -27 -28 29 0
-7 14 19 -22 27 28 -29 0
-7 14 19 -22 27 -28 29 0
-7 14 19 -22 -27 28 29 0
-7 14 19 -22 -27 -28 -29 0
-7 14 -19 22 27 28 -29 0
-7 14 -19 22 27 -28 29 0
-7 14 -19 22 -27 28 29 0
-7 14 -19 22 -27 -28 -29 0
-7 14 -19 -22 27 28 29 0
-7 14 -19 -22 27 -28 -29 0
-7 14 -19 -22 -27 28 -29 0
-7 14 -19 -22 -27 -28 29 0
-7 -14 19 22 27 28 -29 0
-7 -14 19 22 27 -28 29 0
-7 -14 19 22 -27 28 29 0
-7 -14 19 22 -27 -28 -29 0
-7 -14 19 -22 27 28 29 0
-7 -14 19 -22 27 -28 -29 0
-7 -14 19 -22 -27 28 -29 0
-7 -14 19 -22 -27 -28 29 0
-7 -14 -19 22 27 28 29 0
-7 -14 -19 22 27 -28 -29 0
-7 -14 -19 22 -27 28 -29 0
-7 -14 -19 22 -27 -28 29 0
-7 -14 -19 -22 27 28 -29 0
-7 -14 -19 -22 27 -28 29 0
-7 -14 -19 -22 -27 28 29 0
-7 -14 -19 -22 -27 -28 -29 0
8 15 20 23 27 -30 0
8 15 20 23 -27 30 0
8 15 20 -23 27 30 0
8 15 20 -23 -27 -30 0
8 15 -20 23 27 30 0
8 15 -20 23 -27 -30 0
8 15 -20 -23 27 -30 0
8 15 -20 -23 -27 30 0
8 -15 20 23 27 30 0
8 -15 20 23 -27 -30 0
8 -15 20 -23 27 -30 0
8 -15 20 -23 -27 30 0
8 -15 -20 23 27 -30 0
8 -15 -20 23 -27 30 0
8 -15 -20 -23 27 30 0
8 -15 -20 -23 -27 -30 0
-8 15 20 23 27 30 0
-8 15 20 23 -27 -30 0
-8 15 20 -23 27 -30 0
-8 15 20 -23 -27 30 0
-8 15 -20 23 27 -30 0
-8 15 -20 23 -27 30 0
-8 15 -20 -23 27 30 0
-8 15 -20 -23 -27 -30 0
-8 -15 20 23 27 -30 0
-8 -15 20 23 -27 30 0
-8 -15 20 -23 27 30 0
-8 -15 20 -23 -27 -30 0
-8 -15 -20 23 27 30 0
-8 -15 -20 23 -27 -30 0
-8 -15 -20 -23 27 -30 0
-8 -15 -20 -23 -27 30 0
3 9 25 -28 0
3 9 -25 28 0
3 -9 25 28 0
3 -9 -25 -28 0
-3 9 25 28 0
-3 9 -25 -28 0
-3 -9 25 -28 0
-3 -9 -25 28 0
4 10 16 24 26 29 -30 0
4 10 16 24 26 -29 30 0
4 10 16 24 -26 29 30 0
4 10 16 24 -26 -29 -30 0
4 10 16 -24 26 29 30 0
4 10 16 -24 26 -29 -30 0
4 10 16 -24 -26 29 -30 0
4 10 16 -24 -26 -29 30 0
4 10 -16 24 26 29 30 0
4 10 -16 24 26 -29 -30 0
4 10 -16 24 -26 29 -30 0
4 10 -16 24 -26 -29 30 0
4 10 -16 -24 26 29 -30 0
4 10 -16 -24 26 -29 30 0
4 10 -16 -24 -26 29 30 0
4 10 -16 -24 -26 -29 -30 0
4 -10 16 24 26 29 30 0
4 -10 16 24 26 -29 -30 0
4 -10 16 24 -26 29 -30 0
4 -10 16 24 -26 -29 30 0
4 -10 16 -24 26 29 -30 0
4 -10 16 -24 26 -29 30 0
4 -10 16 -24 -26 29 30 0
4 -10 16 -24 -26 -29 -30 0
4 -10 -16 24 26 29 -30 0
4 -10 -16 24 26 -29 30 0
4 -10 -16 24 -26 29 30 0
4 -10 -16 24 -26 -29 -30 0
4 -10 -16 -24 26 29 30 0
4 -10 -16 -24 26 -29 -30 0
4 -10 -16 -24 -26 29 -30 0
4 -10 -16 -24 -26 -29 30 0
-4 10 16 24 26 29 30 0
-4 10 16 24 26 -29 -30 0
-4 10 16 24 -26 29 -30 0
-4 10 16 24 -26 -29 30 0
-4 10 16 -24 26 29 -30 0
-4 10 16 -24 26 -29 30 0
-4 10 16 -24 -26 29 30 0
-4 10 16 -24 -26 -29 -30 0
-4 10 -16 24 26 29 -30 0
-4 10 -16 24 26 -29 30 0
-4 10 -16 24 -26 29 30 0
-4 10 -16 24 -26 -29 -30 0
-4 10 -16 -24 26 29 30 0
-4 10 -16 -24 26 -29 -30 0
-4 10 -16 -24 -26 29 -30 0
-4 10 -16 -24 -26 -29 30 0
-4 -10 16 24 26 29 -30 0
-4 -10 16 24 26 -29 30 0
-4 -10 16 24 -26 29 30 0
-4 -10 16 24 -26 -29 -30 0
-4 -10 16 -24 26 29 30 0
-4 -10 16 -24 26 -29 -30 0
-4 -10 16 -24 -26 29 -30 0
-4 -10 16 -24 -26 -29 30 0
-4 -10 -16 24 26 29 30 0
-4 -10 -16 24 26 -29 -30 0
-4 -10 -16 24 -26 29 -30 0
-4 -10 -16 24 -26 -29 30 0
-4 -10 -16 -24 26 29 -30 0
-4 -10 -16 -24 26 -29 30 0
-4 -10 -16 -24 -26 29 30 0
-4 -10 -16 -24 -26 -29 -30 0